letting x be 7
letting y be 7

letting treecount be 9

letting colsums be [1,2,1,1,1,1,2]
letting rowsums be [1,2,2,0,1,2,1]

letting trees be 
[
    [1,0,0,0,0,0,0],
    [0,2,0,0,3,0,4],
    [0,0,0,0,0,0,0],
    [0,5,0,0,0,0,6],
    [0,0,0,0,0,0,0],
    [0,7,0,0,8,0,9],
    [0,0,0,0,0,0,0]

]